p cnf 66 236
-3 -1 0
-3 2 0
1 -2 3 0
6 4 0
6 5 0
-4 -5 -6 0
7 -3 0
7 -6 0
3 6 -7 0
-8 5 0
-8 -2 0
-5 2 8 0
5 -8 -9 0
-5 8 -9 0
5 8 9 0
-5 -8 9 0
9 -10 -11 0
-9 10 -11 0
9 10 11 0
-9 -10 11 0
12 7 0
12 -11 0
-7 11 -12 0
-7 -3 -13 0
7 3 -13 0
-7 3 13 0
7 -3 13 0
15 -14 0
15 10 0
14 -10 -15 0
-13 -15 -16 0
13 15 -16 0
-13 15 16 0
13 -15 16 0
17 -10 0
17 -5 0
10 5 -17 0
8 17 -18 0
-8 -17 -18 0
8 -17 18 0
-8 17 18 0
19 9 0
19 18 0
-9 -18 -19 0
-19 -20 -21 0
19 20 -21 0
-19 20 21 0
19 -20 21 0
-16 21 -22 0
16 -21 -22 0
-16 -21 22 0
16 21 22 0
12 -22 -23 0
-12 22 -23 0
12 22 23 0
-12 -22 23 0
-24 5 0
-24 2 0
-5 -2 24 0
25 6 0
25 -24 0
-6 24 -25 0
-27 -26 0
-27 -4 0
26 4 27 0
28 -26 0
28 27 0
26 -27 -28 0
-29 -17 0
-29 -28 0
17 28 29 0
31 -26 0
31 -3 0
26 3 -31 0
-32 30 0
-32 -31 0
-30 31 32 0
-33 -29 0
-33 32 0
29 -32 33 0
-1 -26 -34 0
1 26 -34 0
-1 26 34 0
1 -26 34 0
-30 -5 -35 0
30 5 -35 0
-30 5 35 0
30 -5 35 0
36 34 0
36 35 0
-34 -35 -36 0
37 -33 0
37 -36 0
33 36 -37 0
-38 25 0
-38 37 0
-25 -37 38 0
39 -23 0
39 -38 0
23 38 -39 0
-41 40 0
-41 6 0
-40 -6 41 0
-42 5 0
-42 41 0
-5 -41 42 0
43 5 0
43 -4 0
-5 4 -43 0
24 -44 0
-24 -44 0
45 -43 0
45 44 0
43 -44 -45 0
46 -3 0
46 -24 0
3 24 -46 0
47 4 0
47 -41 0
-4 41 -47 0
-48 46 0
-48 47 0
-46 -47 48 0
-49 20 0
-49 -24 0
-20 24 49 0
-50 48 0
-50 49 0
-48 -49 50 0
51 7 0
51 46 0
-7 -46 -51 0
-20 26 -52 0
20 -26 -52 0
-20 -26 52 0
20 26 52 0
53 51 0
53 -52 0
-51 52 -53 0
50 -53 -54 0
-50 53 -54 0
50 53 54 0
-50 -53 54 0
55 45 0
55 -54 0
-45 54 -55 0
-42 -55 -56 0
42 55 -56 0
-42 55 56 0
42 -55 56 0
-57 -39 0
-57 -56 0
39 56 57 0
-1 -24 -58 0
1 24 -58 0
-1 24 58 0
1 -24 58 0
-59 -47 0
-59 18 0
47 -18 59 0
-60 59 0
-60 -59 0
-61 58 0
-61 -60 0
-58 60 61 0
-62 28 0
-62 46 0
-28 -46 62 0
-63 27 0
-63 -2 0
-27 2 63 0
64 -62 0
64 -63 0
62 63 -64 0
65 -61 0
65 -64 0
61 64 -65 0
-57 -65 -66 0
57 65 -66 0
-57 65 66 0
57 -65 66 0
-10 -50 -22 38 0
-23 7 -50 66 14 0
61 -33 0
-36 16 0
-3 31 -19 65 0
-31 -21 -48 -44 -49 4 0
-56 28 29 0
33 36 43 -64 6 57 0
2 -55 0
-46 -40 -45 0
-52 22 -37 -24 -46 4 0
-35 -21 59 4 2 0
1 -4 46 0
27 -62 -25 0
-26 23 11 0
49 6 2 -39 1 20 0
-32 -23 0
-2 -61 33 0
-42 -18 16 0
21 -66 -16 0
11 7 26 56 0
-52 7 -31 0
39 44 4 -57 7 46 0
12 49 -36 -16 54 0
-39 -34 0
51 32 -15 43 -8 0
-59 -1 -3 -36 -65 0
8 -5 0
-38 9 53 -56 -60 -39 0
-56 57 0
-40 36 -22 52 -13 0
-7 -38 0
44 -62 0
-4 60 17 0
-26 -14 -51 -17 0
-43 42 -51 17 2 -1 0
30 5 0
39 17 44 -36 0
-17 -2 -36 0
-41 65 -10 0
-32 -36 0
53 28 -59 40 -57 0
23 -55 29 0
-59 -45 29 52 0
18 12 47 0
-50 6 0
-35 -15 -40 -4 0
-41 -52 0
-11 -21 14 0
-61 44 8 0
45 -25 -15 -54 -46 0
-31 -62 53 -13 -54 0
-24 64 -38 0
24 -32 -15 0
66 0
